Maximize
  0 x0 + 0 x1 + 0 x2 + 0 x3 + 0 x4 + 42 x5 + 0 x6 + 0 x7 + 0 x8 + 0 x9
   + 0 x10 + 0 x11 + 0 x12 + 0 x13 + 0 x14 + 0 x15 + 11 x16 - 29 x17
   + 12 x18 - 35 x19 + 0 x20 + 0 x21 + 0 x22 + 0 x23 + 0 x24 + 0 x25
   + 0 x26 + 0 x27 + 0 x28 + 0 x29 + 0 x30 + 0 x31 + 0 x32 + 0 x33 + 0 x34
   + 0 x35 + 0 x36 + 0 x37 + 13 x38 - 30 x39 + 0 x40 + 0 x41 + 46 x42
   - 25 x43 + 0 x44 + 0 x45 + 0 x46 + 0 x47 + 0 x48 + 0 x49 + 0 x50 + 0 x51
   + 0 x52 + 45 x53 + 0 x54 + 0 x55 + 0 x56 + 0 x57 + 0 x58 + 0 x59 + 0 x60
   + 28 x61 + 0 x62 + 0 x63 - 4 x64 + 0 x65 + 0 x66 + 0 x67 + 0 x68 + 0 x69
   + [ 56 x0 * x7 - 94 x0 * x8 + 82 x0 * x15 - 80 x0 * x18 - 34 x0 * x19
   - 6 x0 * x27 - 12 x0 * x28 + 56 x0 * x30 - 6 x0 * x32 + 36 x0 * x33
   - 36 x0 * x38 + 2 x0 * x39 + 82 x0 * x44 + 28 x0 * x47 + 86 x0 * x48
   - 30 x0 * x49 + 42 x0 * x57 + 86 x0 * x64 + 8 x1 * x5 + 76 x1 * x6
   - 92 x1 * x8 + 66 x1 * x10 - 44 x1 * x11 + 72 x1 * x16 - 8 x1 * x22
   + 56 x1 * x24 + 44 x1 * x28 + 10 x1 * x34 + 30 x1 * x38 + 74 x1 * x42
   + 72 x1 * x44 - 60 x1 * x52 - 98 x1 * x55 - 26 x1 * x59 + 80 x1 * x64
   + 58 x2 * x3 - 72 x2 * x9 + 74 x2 * x10 + 42 x2 * x13 - 98 x2 * x14
   + 44 x2 * x27 + 44 x2 * x32 + 84 x2 * x38 + 80 x2 * x40 - 38 x2 * x43
   - 38 x2 * x48 + 84 x2 * x52 + 86 x2 * x53 - 8 x2 * x55 - 8 x2 * x56
   + 12 x2 * x60 - 44 x2 * x65 - 66 x3 * x5 + 34 x3 * x8 + 58 x3 * x9
   + 94 x3 * x11 - 84 x3 * x17 - 76 x3 * x21 - 72 x3 * x22 - 20 x3 * x24
   + 4 x3 * x27 - 68 x3 * x41 - 86 x3 * x50 + 76 x3 * x52 - 34 x3 * x54
   + 58 x3 * x58 + 64 x3 * x63 - 22 x3 * x67 - 54 x4 * x6 - 40 x4 * x27
   + 10 x4 * x35 - 78 x4 * x40 - 82 x4 * x41 + 76 x4 * x44 + 12 x4 * x46
   - 34 x4 * x52 - 46 x4 * x54 - 36 x4 * x66 - 7 x5 ^2 - 94 x5 * x16
   + 84 x5 * x19 - 30 x5 * x20 - 62 x5 * x25 - 80 x5 * x26 + 96 x5 * x27
   + 62 x5 * x31 + 36 x5 * x35 + 8 x5 * x42 - 14 x5 * x45 - 22 x5 * x46
   + 72 x5 * x47 + 10 x5 * x48 - 68 x5 * x52 + 86 x5 * x57 - 64 x5 * x58
   + 52 x5 * x63 - 27 x6 ^2 + 70 x6 * x14 - 6 x6 * x15 - 56 x6 * x16
   + 34 x6 * x19 + 16 x6 * x22 - 46 x6 * x28 - 70 x6 * x31 - 92 x6 * x39
   + 72 x6 * x41 - 40 x6 * x49 + 26 x6 * x57 - 48 x6 * x64 + 8 x6 * x66
   + 80 x6 * x69 - 12 x7 ^2 - 96 x7 * x9 + 8 x7 * x12 - 14 x7 * x13
   - 52 x7 * x15 + 2 x7 * x16 - 66 x7 * x17 + 96 x7 * x25 + 96 x7 * x26
   - 18 x7 * x29 - 78 x7 * x33 - 6 x7 * x35 - 52 x7 * x38 - 74 x7 * x40
   + 8 x7 * x45 + 62 x7 * x55 + 50 x7 * x57 - 98 x7 * x69 - 33 x8 ^2
   - 64 x8 * x12 - 32 x8 * x13 - 70 x8 * x16 + 80 x8 * x18 + 32 x8 * x20
   + 78 x8 * x23 + 86 x8 * x27 + 10 x8 * x31 - 30 x8 * x32 + 44 x8 * x35
   - 94 x8 * x37 + 56 x8 * x43 + 52 x8 * x49 - 74 x8 * x51 - 32 x8 * x53
   - 70 x8 * x55 - 32 x8 * x60 + 16 x8 * x62 - 66 x9 * x10 - 14 x9 * x20
   + 82 x9 * x23 - 34 x9 * x28 + 80 x9 * x33 - 56 x9 * x38 + 80 x9 * x41
   - 24 x9 * x50 - 28 x9 * x53 + 8 x9 * x54 - 58 x9 * x55 + 12 x9 * x60
   + 98 x9 * x61 - 78 x9 * x66 - 4 x9 * x67 - 80 x9 * x68 - 23 x10 ^2
   - 26 x10 * x14 - 46 x10 * x23 + 54 x10 * x25 - 22 x10 * x27
   + 50 x10 * x29 + 18 x10 * x31 + 2 x10 * x35 - 38 x10 * x36
   - 34 x10 * x43 + 66 x10 * x53 - 24 x10 * x57 + 36 x10 * x60
   + 48 x10 * x62 - 70 x10 * x63 - 18 x10 * x66 - 30 x11 ^2 + 52 x11 * x14
   + 16 x11 * x16 - 20 x11 * x20 - 64 x11 * x39 - 60 x11 * x41
   + 98 x11 * x45 - 28 x11 * x47 - 98 x11 * x50 + 66 x11 * x54
   + 74 x11 * x55 - 38 x11 * x56 - 36 x11 * x62 - 98 x11 * x67
   - 24 x12 * x17 + 84 x12 * x26 - 22 x12 * x30 + 94 x12 * x31
   - 64 x12 * x32 + 6 x12 * x36 + 34 x12 * x42 - 74 x12 * x49
   + 62 x12 * x52 - 30 x12 * x53 + 38 x12 * x54 - 32 x13 * x14
   + 66 x13 * x16 + 98 x13 * x17 + 78 x13 * x22 + 80 x13 * x24
   - 56 x13 * x27 + 16 x13 * x39 + 90 x13 * x41 - 22 x13 * x43
   - 50 x13 * x45 - 48 x13 * x47 + 84 x13 * x56 - 90 x13 * x61
   - 66 x13 * x69 + 9 x14 ^2 + 78 x14 * x15 - 2 x14 * x23 - 68 x14 * x33
   - 62 x14 * x35 - 36 x14 * x42 + 76 x14 * x45 + 96 x14 * x47
   + 26 x14 * x49 + 56 x14 * x58 - 44 x14 * x62 + 68 x15 * x24
   - 94 x15 * x35 - 68 x15 * x41 - 32 x15 * x54 - 56 x15 * x56
   - 52 x15 * x58 + 72 x15 * x59 + 94 x15 * x62 + 36 x15 * x68
   + 98 x15 * x69 + 6 x16 * x19 + 64 x16 * x20 + 92 x16 * x27
   - 74 x16 * x33 + 62 x16 * x35 - 40 x16 * x37 - 48 x16 * x38
   - 16 x16 * x39 + 26 x16 * x42 + 80 x16 * x48 - 46 x16 * x59
   - 2 x16 * x60 - 98 x16 * x66 - 28 x16 * x67 - 80 x17 * x19
   - 14 x17 * x21 - 62 x17 * x23 + 42 x17 * x24 + 66 x17 * x27
   + 98 x17 * x35 - 80 x17 * x36 - 58 x17 * x37 + 86 x17 * x41
   + 4 x17 * x47 - 8 x17 * x48 + 56 x17 * x56 + 54 x17 * x57 + 34 x17 * x63
   + 36 x18 * x19 - 92 x18 * x33 + 24 x18 * x35 + 32 x18 * x38
   - 62 x18 * x39 - 2 x18 * x40 + 98 x18 * x43 - 46 x18 * x49 + 4 x18 * x53
   - 18 x18 * x55 + 80 x18 * x60 - 96 x18 * x65 + 64 x18 * x69
   + 54 x19 * x22 + 48 x19 * x28 + 2 x19 * x30 + 96 x19 * x42
   - 38 x19 * x46 + 70 x19 * x50 + 66 x19 * x53 - 70 x19 * x57
   - 50 x19 * x62 + 4 x20 ^2 + 84 x20 * x21 - 16 x20 * x24 + 16 x20 * x25
   + 90 x20 * x26 + 74 x20 * x27 - 8 x20 * x41 + 56 x20 * x42
   + 74 x20 * x45 - 28 x20 * x49 + 46 x20 * x50 + 30 x20 * x51
   - 98 x20 * x53 + 72 x20 * x55 + 84 x20 * x56 - 82 x20 * x58
   + 20 x20 * x61 - 94 x20 * x63 - 78 x20 * x65 - 12 x20 * x66
   + 56 x20 * x69 - 16 x21 ^2 - 22 x21 * x22 - 12 x21 * x25 - 32 x21 * x26
   + 34 x21 * x28 - 54 x21 * x31 - 86 x21 * x33 - 24 x21 * x36
   - 90 x21 * x39 + 2 x21 * x44 - 22 x21 * x47 + 40 x21 * x55
   + 22 x21 * x57 - 28 x21 * x59 - 64 x21 * x64 + 54 x21 * x65
   - 70 x21 * x68 + 98 x22 * x26 - 32 x22 * x31 + 70 x22 * x44
   + 56 x22 * x49 - 16 x22 * x51 + 38 x22 * x53 - 14 x22 * x55
   - 14 x22 * x64 - 32 x23 ^2 + 66 x23 * x26 - 14 x23 * x29 - 90 x23 * x30
   + 62 x23 * x37 - 6 x23 * x39 + 92 x23 * x42 - 80 x23 * x49
   + 16 x23 * x52 - 28 x23 * x58 + 20 x23 * x60 - 86 x23 * x62
   + 12 x23 * x68 + 10 x24 * x31 - 80 x24 * x33 - 8 x24 * x37
   + 22 x24 * x40 - 94 x24 * x50 - 84 x24 * x54 - 28 x24 * x57
   + 16 x24 * x68 - 50 x25 * x26 - 92 x25 * x36 - 92 x25 * x40
   + 16 x25 * x45 + 42 x25 * x50 - 16 x25 * x51 + 4 x25 * x61 + 4 x25 * x64
   - 8 x25 * x68 - 20 x26 * x27 + 38 x26 * x28 - 14 x26 * x46
   - 88 x26 * x47 + 14 x26 * x48 + 72 x26 * x53 - 96 x26 * x59
   + 24 x26 * x68 + 98 x27 * x33 - 28 x27 * x36 + 28 x27 * x40
   + 20 x27 * x44 + 98 x27 * x48 + 34 x27 * x56 - 66 x27 * x57
   - 60 x27 * x63 - 98 x27 * x64 + 68 x27 * x68 - 16 x28 * x42
   - 34 x28 * x46 + 82 x28 * x49 + 70 x28 * x50 - 4 x28 * x52
   - 48 x28 * x55 + 60 x28 * x58 - 48 x28 * x61 + 22 x28 * x63 + 38 x29 ^2
   + 84 x29 * x30 + 12 x29 * x36 + 80 x29 * x47 + 42 x29 * x48
   - 78 x29 * x50 + 44 x29 * x54 + 36 x29 * x58 - 18 x29 * x67
   - 64 x29 * x69 + 22 x30 ^2 + 58 x30 * x33 + 48 x30 * x34 + 8 x30 * x39
   + 56 x30 * x48 - 18 x30 * x49 + 76 x30 * x53 + 38 x30 * x57
   + 42 x30 * x66 + 52 x30 * x67 + 52 x30 * x68 + 18 x31 * x32
   - 98 x31 * x33 + 60 x31 * x41 - 44 x31 * x43 + 12 x31 * x45
   - 98 x31 * x47 + 18 x31 * x50 + 16 x31 * x53 + 62 x31 * x55
   + 16 x31 * x58 - 12 x31 * x61 - 30 x31 * x62 - 14 x31 * x65 - 33 x32 ^2
   - 42 x32 * x40 - 74 x32 * x41 + 86 x32 * x42 + 40 x32 * x46
   - 22 x32 * x48 + 34 x32 * x49 - 14 x32 * x56 - 84 x32 * x64
   + 88 x32 * x67 - 34 x32 * x69 - 34 x33 ^2 - 86 x33 * x34 - 84 x33 * x39
   + 74 x33 * x40 - 52 x33 * x43 + 18 x33 * x48 + 64 x33 * x53
   + 22 x33 * x56 + 54 x33 * x57 + 22 x33 * x64 - 26 x33 * x65
   - 22 x33 * x66 + 84 x33 * x68 + 28 x34 * x36 - 54 x34 * x37
   + 8 x34 * x39 + 38 x34 * x50 - 50 x34 * x52 + 66 x34 * x61
   + 18 x34 * x66 + 18 x34 * x67 - 23 x35 ^2 + 66 x35 * x38 + 6 x35 * x41
   - 32 x35 * x46 - 50 x35 * x52 + 52 x35 * x66 - 60 x36 * x43
   - 26 x36 * x46 + 48 x36 * x49 - 54 x36 * x51 + 42 x36 * x52
   - 58 x36 * x54 - 16 x36 * x55 + 6 x36 * x58 - 24 x36 * x63
   + 52 x36 * x68 - 92 x37 * x43 + 88 x37 * x44 + 8 x37 * x51
   + 82 x37 * x52 - 90 x37 * x58 - 88 x37 * x60 - 4 x37 * x69
   - 84 x38 * x40 + 14 x38 * x50 + 4 x38 * x51 + 44 x38 * x56
   - 80 x38 * x58 - 50 x38 * x64 - 46 x38 * x65 + 66 x38 * x68
   + 54 x39 * x40 + 80 x39 * x42 + 60 x39 * x43 - 42 x39 * x44
   + 8 x39 * x51 - 66 x39 * x52 + 8 x39 * x57 + 76 x39 * x59 - 16 x39 * x63
   - 56 x39 * x67 + 16 x40 * x41 - 62 x40 * x46 + 54 x40 * x52
   + 10 x40 * x64 + 16 x40 * x66 - 60 x40 * x69 - 54 x41 * x47
   - 88 x41 * x48 + 2 x41 * x50 - 68 x41 * x52 + 18 x41 * x57
   + 62 x41 * x61 + 22 x41 * x68 - 94 x42 * x43 + 14 x42 * x48
   - 16 x42 * x50 - 24 x42 * x52 + 8 x42 * x54 - 82 x42 * x57
   - 76 x42 * x58 + 10 x42 * x59 - 30 x42 * x68 - 62 x43 * x49
   + 32 x43 * x57 + 32 x43 * x58 - 2 x43 * x62 - 92 x43 * x65
   - 50 x44 * x45 - 92 x44 * x46 - 46 x44 * x50 - 78 x44 * x51
   + 10 x44 * x57 + 2 x44 * x58 - 80 x44 * x60 - 38 x44 * x64
   + 46 x44 * x68 - 28 x44 * x69 + 5 x45 ^2 - 38 x45 * x48 - 98 x45 * x52
   - 48 x45 * x61 + 94 x45 * x62 - 92 x46 * x51 - 54 x46 * x57
   + 44 x46 * x61 + 44 x46 * x63 + 52 x46 * x64 + 2 x46 * x66
   + 24 x47 * x48 + 64 x47 * x49 - 8 x47 * x59 + 94 x47 * x60 + 2 x47 * x66
   + 43 x48 ^2 + 96 x48 * x53 + 10 x48 * x61 - 30 x48 * x67 + 24 x48 * x69
   - 78 x49 * x56 - 94 x49 * x62 + 92 x50 * x51 + 38 x50 * x54
   - 84 x50 * x61 - 22 x50 * x65 - 4 x50 * x68 + 30 x51 ^2 - 24 x51 * x54
   + 6 x51 * x55 + 8 x51 * x56 - 88 x51 * x57 + 58 x51 * x58 - 16 x51 * x60
   - 44 x51 * x61 - 48 x51 * x62 + 60 x51 * x69 + 94 x52 * x54
   + 80 x52 * x58 + 28 x52 * x62 + 82 x52 * x65 + 80 x52 * x67
   + 74 x53 * x54 + 40 x53 * x59 - 50 x53 * x66 + 76 x54 * x56
   - 68 x55 * x58 - 14 x55 * x69 - 72 x56 * x57 - 24 x56 * x61
   - 14 x56 * x66 - 33 x57 ^2 - 90 x57 * x64 + 62 x57 * x65 - 92 x57 * x66
   + 16 x57 * x67 + 82 x58 * x63 + 2 x58 * x69 + 90 x59 * x60
   - 58 x59 * x61 + 50 x59 * x62 + 54 x59 * x67 - 13 x60 ^2 + 14 x60 * x62
   - 35 x61 ^2 + 94 x61 * x68 + 16 x62 ^2 - 30 x62 * x63 - 6 x62 * x64
   + 2 x62 * x67 + 94 x62 * x68 + 76 x62 * x69 + 8 x63 ^2 - 12 x64 * x67
   + 48 x64 * x68 - 6 x64 * x69 + 44 x66 ^2 + 10 x67 ^2 + 28 x68 * x69
   ] / 2 
Subject To
Bounds
 x0 <= 1
 x1 <= 1
 x2 <= 1
 x3 <= 1
 x4 <= 1
 x5 <= 1
 x6 <= 1
 x7 <= 1
 x8 <= 1
 x9 <= 1
 x10 <= 1
 x11 <= 1
 x12 <= 1
 x13 <= 1
 x14 <= 1
 x15 <= 1
 x16 <= 1
 x17 <= 1
 x18 <= 1
 x19 <= 1
 x20 <= 1
 x21 <= 1
 x22 <= 1
 x23 <= 1
 x24 <= 1
 x25 <= 1
 x26 <= 1
 x27 <= 1
 x28 <= 1
 x29 <= 1
 x30 <= 1
 x31 <= 1
 x32 <= 1
 x33 <= 1
 x34 <= 1
 x35 <= 1
 x36 <= 1
 x37 <= 1
 x38 <= 1
 x39 <= 1
 x40 <= 1
 x41 <= 1
 x42 <= 1
 x43 <= 1
 x44 <= 1
 x45 <= 1
 x46 <= 1
 x47 <= 1
 x48 <= 1
 x49 <= 1
 x50 <= 1
 x51 <= 1
 x52 <= 1
 x53 <= 1
 x54 <= 1
 x55 <= 1
 x56 <= 1
 x57 <= 1
 x58 <= 1
 x59 <= 1
 x60 <= 1
 x61 <= 1
 x62 <= 1
 x63 <= 1
 x64 <= 1
 x65 <= 1
 x66 <= 1
 x67 <= 1
 x68 <= 1
 x69 <= 1
End
